 $CONTRL SCFTYP=RHF RUNTYP=optimize MULT=1 $END
 $BASIS  GBASIS=N31 NGAUSS=6 ndfunc=1 npfunc=1 $END
 $statpt hssend=.t. $end
                         
 $DATA                                                     ! Paste geometry near TS
 n-AcOH
 C1
O	8        0.174000000     -1.176000000      0.000000000
C	6        1.546000000      0.866000000      0.000000000
C	6        0.303000000      0.052000000      0.000000000
O	8       -0.846000000      0.786000000      0.000000000
H	1       -1.615000000      0.193000000      0.000000000
H	1        1.308000000      1.957000000      0.000000000
H	1        2.145000000      0.615000000      0.910000000
H	1        2.145000000      0.615000000     -0.910000000
 $END
