 $CONTRL RUNTYP=sadpoint UNITS=ANGS $END
 $BASIS  GBASIS=N31 NGAUSS=6 ndfunc=1 npfunc=1 $END
 $statpt nstep=100 hssend=.t. ifolow=1 hess=read $end
 $force NVIB=2 RDHESS=.f. $end
 $scf DIIS=.t. SOSCF=.f. $end
 $DATA
  AcOH_TS opt
 C1
 O		8        0.168490826     -1.036086980     -0.475790024
 C		6        1.528785555      0.867917237      0.000329417
 C		6        0.268509325      0.047351157      0.001234578
 O		8       -0.749028366      0.658587800      0.597906450
 H		1       -1.503137051      0.084828396      0.559241875
 H		1        1.388888180      1.820458824     -0.489033867
 H		1        1.842292142      1.020548749      1.025953806
 H		1        2.306568517      0.304857076     -0.501294273
 $END
 $HESS
ENERGY IS     -227.8221715396 E(NUC) IS      122.5184125953
 1  1 1.26112957E-01 8.61856010E-02 1.51960384E-02 8.01667958E-03-3.98833975E-02
 1  2-1.21088894E-02-1.58515694E-01-9.97319081E-02-2.99600967E-02 1.92769518E-02
 1  3 6.31576271E-02 3.61842702E-02 9.46555839E-03-2.31071236E-03-6.12707712E-03
 1  4-5.88981996E-03-5.29997829E-03-1.39366357E-03-3.22457645E-03-3.76232925E-03
 1  5-9.54386422E-04 4.75771802E-03 1.64465070E-03-8.36345280E-04
 2  1 8.61856010E-02 8.66259631E-01 3.81875865E-01-9.78272228E-03-2.77860801E-02
 2  2-2.67642761E-02-1.14581971E-01-7.69863008E-01-2.96755602E-01 4.98824542E-02
 2  3-5.88045066E-02-6.18794950E-02-3.00325222E-03-5.96930296E-03 1.36117541E-03
 2  4-2.34305478E-03-6.19069568E-04-3.34134470E-04-5.86409087E-03-4.33929810E-03
 2  5 1.48265494E-03-4.94412509E-04 1.12196522E-03 1.01468896E-03
 3  1 1.51960384E-02 3.81875865E-01 2.20255687E-01 2.71124403E-03-1.75730834E-02
 3  2 2.31769189E-02-3.72688063E-02-3.01292856E-01-2.32784365E-01 2.96475743E-02
 3  3-6.59305958E-02-5.52304764E-03-6.46788312E-03 1.15093163E-03-4.33240546E-03
 3  4-5.26737272E-03-1.90595574E-03-9.85690401E-04 3.33927326E-03 3.31511945E-03
 3  5 7.02986878E-05-1.88970051E-03 3.60440319E-04 1.22526511E-04
 4  1 8.01667958E-03-9.78272228E-03 2.71124403E-03 6.14255559E-01-5.25743350E-02
 4  2-2.74670948E-02-2.14702212E-01-6.18311118E-02 2.92995474E-04-4.04944627E-02
 4  3-1.91827184E-02 7.46874468E-03-1.68996025E-03 2.91628382E-03 3.37317047E-03
 4  4-6.75146026E-02 4.11945728E-02-1.85048127E-02-8.13161501E-02-1.57851146E-02
 4  5-7.27006550E-02-2.16554360E-01 1.15045711E-01 1.04826430E-01
 5  1-3.98833975E-02-2.77860801E-02-1.75730834E-02-5.25743350E-02 6.29424336E-01
 5  2 2.61584727E-02-6.42757950E-02-1.37291127E-01 8.18865655E-03 1.78378806E-02
 5  3 1.50502807E-02-5.36723986E-03 4.79528410E-03-9.25842360E-05-3.80146692E-03
 5  4 4.25321769E-02-2.80025790E-01 1.16972882E-01-1.39438095E-02-6.13350013E-02
 5  5-5.33815387E-02 1.05511284E-01-1.37944548E-01-7.11965482E-02
 6  1-1.21088894E-02-2.67642761E-02 2.31769189E-02-2.74670948E-02 2.61584727E-02
 6  2 6.30202369E-01-9.02332206E-04 7.44593004E-03-1.10118092E-01 2.56901351E-02
 6  3 5.93501477E-03 9.96715856E-03 4.29869869E-03-3.22872454E-03 1.75986860E-03
 6  4-1.80122898E-02 1.18752614E-01-1.12114421E-01-7.16336934E-02-5.41888351E-02
 6  5-3.17033943E-01 1.00135095E-01-7.41100797E-02-1.25840193E-01
 7  1-1.58515694E-01-1.14581971E-01-3.72688063E-02-2.14702212E-01-6.42757950E-02
 7  2-9.02332206E-04 7.14577643E-01 1.32254528E-01-6.63656803E-02-2.83390158E-01
 7  3 3.50360137E-02 7.89229865E-02-4.73096342E-02 2.24828573E-02 2.70727556E-02
 7  4 1.33097696E-02 8.51366005E-03-1.04810306E-03-3.46928837E-03-3.24085333E-03
 7  5 2.14700375E-03-2.04996155E-02-1.61876036E-02-2.55750570E-03
 8  1-9.97319081E-02-7.69863008E-01-3.01292856E-01-6.18311118E-02-1.37291127E-01
 8  2 7.44593004E-03 1.32254528E-01 1.06587084E+00 3.44436879E-01 6.48369108E-02
 8  3-1.71170456E-01-6.39783682E-02-2.89119163E-02 2.45835585E-02 1.84014262E-02
 8  4-2.99950448E-02-1.97875299E-02-3.51373870E-03-7.37070160E-04-4.39311703E-03
 8  5-1.43338753E-03 2.41166121E-02 1.20516234E-02-6.65180732E-05
 9  1-2.99600967E-02-2.96755602E-01-2.32784365E-01 2.92995474E-04 8.18865655E-03
 9  2-1.10118092E-01-6.63656803E-02 3.44436879E-01 4.73802958E-01 9.35828627E-02
 9  3-5.48756009E-02-1.36968927E-01 1.78927877E-03 2.70356481E-03 5.92287239E-03
 9  4 2.05398375E-02 9.04198321E-03 3.90532347E-04-3.71662359E-02-2.49867152E-02
 9  5 1.78320720E-03 1.72872386E-02 1.22463258E-02-2.02791842E-03
10  1 1.92769518E-02 4.98824542E-02 2.96475743E-02-4.04944627E-02 1.78378806E-02
10  2 2.56901351E-02-2.83390158E-01 6.48369108E-02 9.35828627E-02 7.05060233E-01
10  3 1.59069160E-01-1.22676484E-01-3.91584509E-01-2.87428269E-01-2.75896562E-02
10  4-1.36229526E-03 1.29458583E-04 8.71385307E-04-8.28813525E-05 1.25234513E-03
10  5 4.65251833E-04-7.42355321E-03-5.58061802E-03 8.79976158E-06
11  1 6.31576271E-02-5.88045066E-02-6.59305958E-02-1.91827184E-02 1.50502807E-02
11  2 5.93501477E-03 3.50360137E-02-1.71170456E-01-5.48756009E-02 1.59069160E-01
11  3 4.64373994E-01 1.56739216E-01-2.35388257E-01-2.50219576E-01-4.19313943E-02
11  4 2.25011858E-03 2.27272387E-03-3.09166956E-04 2.37754732E-04 3.81422880E-04
11  5 5.06491014E-04-5.17971894E-03-1.88445448E-03-1.34558669E-04
12  1 3.61842702E-02-6.18794950E-02-5.52304764E-03 7.46874468E-03-5.36723986E-03
12  2 9.96715856E-03 7.89229865E-02-6.39783682E-02-1.36968927E-01-1.22676484E-01
12  3 1.56739216E-01 1.61688760E-01-1.98874988E-03-2.60372442E-02-3.10929222E-02
12  4-1.44874703E-03-1.09344341E-03-1.07114110E-04 3.33139766E-03 1.62931437E-03
12  5 5.03901091E-04 2.06391463E-04-1.20954626E-05 1.53233103E-03
13  1 9.46555839E-03-3.00325222E-03-6.46788312E-03-1.68996025E-03 4.79528410E-03
13  2 4.29869869E-03-4.73096342E-02-2.89119163E-02 1.78927877E-03-3.91584509E-01
13  3-2.35388257E-01-1.98874988E-03 4.31376561E-01 2.63655143E-01 2.53262373E-03
13  4 2.67015712E-04-2.81166068E-04 1.18808789E-04 5.14918603E-04 2.33059131E-04
13  5-3.00063811E-04-1.04021610E-03-1.09862873E-03 1.74342320E-05
14  1-2.31071236E-03-5.96930296E-03 1.15093163E-03 2.91628382E-03-9.25842360E-05
14  2-3.22872454E-03 2.24828573E-02 2.45835585E-02 2.70356481E-03-2.87428269E-01
14  3-2.50219576E-01-2.60372442E-02 2.63655143E-01 2.31216380E-01 2.59029535E-02
14  4 2.61408860E-04 1.50495067E-04-1.20109378E-04-3.36562646E-04-3.60351638E-04
14  5-9.13112675E-05 7.59907411E-04 6.91367977E-04-2.79689289E-04
15  1-6.12707712E-03 1.36117541E-03-4.33240546E-03 3.37317047E-03-3.80146692E-03
15  2 1.75986860E-03 2.70727556E-02 1.84014262E-02 5.92287239E-03-2.75896562E-02
15  3-4.19313943E-02-3.10929222E-02 2.53262373E-03 2.59029535E-02 2.68805393E-02
15  4-7.53350734E-04-5.50016109E-04-2.26203035E-05 5.59845146E-04 3.30096689E-04
15  5 2.39361801E-04 9.31600183E-04 2.87204446E-04 6.45215078E-04
16  1-5.88981996E-03-2.34305478E-03-5.26737272E-03-6.75146026E-02 4.25321769E-02
16  2-1.80122898E-02 1.33097696E-02-2.99950448E-02 2.05398375E-02-1.36229526E-03
16  3 2.25011858E-03-1.44874703E-03 2.67015712E-04 2.61408860E-04-7.53350734E-04
16  4 6.49670455E-02-4.45093259E-02 2.38645143E-02-1.49678245E-03 9.90353115E-03
16  5-4.03067969E-03-2.28039162E-03 2.19001163E-02-1.48918744E-02
17  1-5.29997829E-03-6.19069568E-04-1.90595574E-03 4.11945728E-02-2.80025790E-01
17  2 1.18752614E-01 8.51366005E-03-1.97875299E-02 9.04198321E-03 1.29458583E-04
17  3 2.27272387E-03-1.09344341E-03-2.81166068E-04 1.50495067E-04-5.50016109E-04
17  4-4.45093259E-02 3.01462157E-01-1.28279464E-01-8.15025029E-04 8.95431232E-03
17  5-3.68447849E-03 1.06894499E-03-1.24073264E-02 7.71859283E-03
18  1-1.39366357E-03-3.34134470E-04-9.85690401E-04-1.85048127E-02 1.16972882E-01
18  2-1.12114421E-01-1.04810306E-03-3.51373870E-03 3.90532347E-04 8.71385307E-04
18  3-3.09166956E-04-1.07114110E-04 1.18808789E-04-1.20109378E-04-2.26203035E-05
18  4 2.38645143E-02-1.28279464E-01 1.17116432E-01-4.60020902E-03 3.23251428E-02
18  5-1.45804882E-02 6.91448756E-04-1.67414784E-02 1.03035014E-02
19  1-3.22457645E-03-5.86409087E-03 3.33927326E-03-8.13161501E-02-1.39438095E-02
19  2-7.16336934E-02-3.46928837E-03-7.37070160E-04-3.71662359E-02-8.28813525E-05
19  3 2.37754732E-04 3.33139766E-03 5.14918603E-04-3.36562646E-04 5.59845146E-04
19  4-1.49678245E-03-8.15025029E-04-4.60020902E-03 7.82720321E-02 1.84518568E-02
19  5 7.99092754E-02 1.08028804E-02 3.00684169E-03 2.62603768E-02
20  1-3.76232925E-03-4.33929810E-03 3.31511945E-03-1.57851146E-02-6.13350013E-02
20  2-5.41888351E-02-3.24085333E-03-4.39311703E-03-2.49867152E-02 1.25234513E-03
20  3 3.81422880E-04 1.62931437E-03 2.33059131E-04-3.60351638E-04 3.30096689E-04
20  4 9.90353115E-03 8.95431232E-03 3.23251428E-02 1.84518568E-02 6.39421411E-02
20  5 5.77351985E-02-7.05245425E-03-2.85022817E-03-1.61594194E-02
21  1-9.54386422E-04 1.48265494E-03 7.02986878E-05-7.27006550E-02-5.33815387E-02
21  2-3.17033943E-01 2.14700375E-03-1.43338753E-03 1.78320720E-03 4.65251833E-04
21  3 5.06491014E-04 5.03901091E-04-3.00063811E-04-9.13112675E-05 2.39361801E-04
21  4-4.03067969E-03-3.68447849E-03-1.45804882E-02 7.99092754E-02 5.77351985E-02
21  5 3.41363467E-01-4.53507022E-03-1.13382803E-03-1.23459796E-02
22  1 4.75771802E-03-4.94412509E-04-1.88970051E-03-2.16554360E-01 1.05511284E-01
22  2 1.00135095E-01-2.04996155E-02 2.41166121E-02 1.72872386E-02-7.42355321E-03
22  3-5.17971894E-03 2.06391463E-04-1.04021610E-03 7.59907411E-04 9.31600183E-04
22  4-2.28039162E-03 1.06894499E-03 6.91448756E-04 1.08028804E-02-7.05245425E-03
22  5-4.53507022E-03 2.32237311E-01-1.18730528E-01-1.12827277E-01
23  1 1.64465070E-03 1.12196522E-03 3.60440319E-04 1.15045711E-01-1.37944548E-01
23  2-7.41100797E-02-1.61876036E-02 1.20516234E-02 1.22463258E-02-5.58061802E-03
23  3-1.88445448E-03-1.20954626E-05-1.09862873E-03 6.91367977E-04 2.87204446E-04
23  4 2.19001163E-02-1.24073264E-02-1.67414784E-02 3.00684169E-03-2.85022817E-03
23  5-1.13382803E-03-1.18730528E-01 1.41221729E-01 7.91036228E-02
24  1-8.36345280E-04 1.01468896E-03 1.22526511E-04 1.04826430E-01-7.11965482E-02
24  2-1.25840193E-01-2.55750570E-03-6.65180732E-05-2.02791842E-03 8.79976158E-06
24  3-1.34558669E-04 1.53233103E-03 1.74342320E-05-2.79689289E-04 6.45215078E-04
24  4-1.48918744E-02 7.71859283E-03 1.03035014E-02 2.62603768E-02-1.61594194E-02
24  5-1.23459796E-02-1.12827277E-01 7.91036228E-02 1.27610658E-01
 $END