 $CONTRL SCFTYP=RHF RUNTYP=vscf $END
 $BASIS  GBASIS=N31 NGAUSS=6 ndfunc=1 npfunc=1 $END
 $vscf iexc=1  $end
 $DATA                                                     ! Paste geometry near TS
  CO2
 Cnv 4 

 C           6.0   0.0000000000   0.0000000000   0.0000000000
 O           8.0   0.0000000000   0.0000000000   1.1432564392
 O           8.0   0.0000000000   0.0000000000  -1.1432564392
 $END
 $HESS
ENERGY IS     -187.6341762037 E(NUC) IS       59.2471518912
 1  1 1.83689579E-01 0.00000000E+00-2.64341752E-77-9.18449705E-02-3.08148791E-33
 1  2-3.88938455E-62-9.18449704E-02-6.16297582E-33 9.72346137E-63
 2  1 0.00000000E+00 1.83689579E-01-1.43900947E-61-3.08148791E-33-9.18449705E-02
 2  2-1.40990190E-61-6.16297582E-33-9.18449704E-02 2.58118584E-62
 3  1-2.64341752E-77-1.43900947E-61 2.20680943E+00 2.23271360E-78 1.21543267E-62
 3  2-1.10340301E+00-7.29259603E-63 7.77876910E-62-1.10340301E+00
 4  1-9.18449705E-02-3.08148791E-33 2.23271360E-78 4.59222498E-02 0.00000000E+00
 4  2 9.72346137E-63 4.59229016E-02 0.00000000E+00 1.21543267E-63
 5  1-3.08148791E-33-9.18449705E-02 1.21543267E-62 0.00000000E+00 4.59222498E-02
 5  2-9.72346137E-63 0.00000000E+00 4.59229016E-02 3.22648230E-63
 6  1-3.88938455E-62-1.40990190E-61-1.10340301E+00 9.72346137E-63-9.72346137E-63
 6  2 1.24956346E+00 7.26657998E-78 3.95574190E-62-1.46162156E-01
 7  1-9.18449704E-02-6.16297582E-33-7.29259603E-63 4.59229016E-02 0.00000000E+00
 7  2 7.26657998E-78 4.59222498E-02 0.00000000E+00 4.00271381E-78
 8  1-6.16297582E-33-9.18449704E-02 7.77876910E-62 0.00000000E+00 4.59229016E-02
 8  2 3.95574190E-62 0.00000000E+00 4.59222498E-02 2.17897591E-62
 9  1 9.72346137E-63 2.58118584E-62-1.10340301E+00 1.21543267E-63 3.22648230E-63
 9  2-1.46162156E-01 4.00271381E-78 2.17897591E-62 1.24956346E+00
 $END

